0 53 22 32 131 74 25 1 48 130 92 123 119 0
0 128 118 60 72 71 146 132 104 97 141 45 90 77 91 0
0 61 23 150 31 126 33 125 124 10 29 47 36 0
0 86 55 69 79 75 93 76 57 19 115 99 20 0
0 18 49 121 30 94 73 24 147 82 127 85 98 27 0
0 134 44 5 50 145 6 133 143 68 43 7 70 0
0 140 63 117 111 148 144 81 139 46 38 52 0
0 107 3 41 26 2 42 138 21 136 51 78 0
